c SAT Generator for power-law distributed variable frequencies
c -g u -v 20 -c 91 -k 3 -p 2.750000 -b 3.200000 -f /home/schmidt/Devel/ni-kop-sat/data/ensemble/ruf20-91/ruf20-91-897 -u 1 -U 1 -s 3177361863
p cnf 20 91
-6 9 10 0
6 -8 14 0
-5 -17 18 0
-1 -2 -7 0
6 -17 18 0
-12 -15 18 0
12 14 18 0
5 11 -15 0
1 -12 16 0
-8 16 18 0
-8 12 15 0
5 7 -11 0
-4 -10 -20 0
-13 -14 17 0
1 -6 -15 0
-6 -11 14 0
13 -18 -19 0
11 -19 -20 0
-3 4 16 0
12 13 -16 0
1 14 -20 0
-1 9 -18 0
4 -6 13 0
-1 4 -14 0
4 -13 17 0
6 13 16 0
5 -8 -12 0
2 16 17 0
-2 -8 -13 0
-2 -4 -11 0
-6 -11 -14 0
-15 -17 -18 0
1 9 10 0
4 -5 6 0
-3 -6 -19 0
-2 11 19 0
-1 -3 -18 0
-1 -6 18 0
2 -6 17 0
-2 8 13 0
-1 4 -16 0
8 -10 12 0
-2 4 9 0
9 -15 -18 0
4 -12 19 0
12 16 -20 0
-15 16 17 0
-5 7 11 0
-8 14 -17 0
-4 7 -18 0
-7 -12 17 0
-11 -15 19 0
7 -10 17 0
5 -9 -12 0
-6 -8 11 0
3 -7 20 0
-3 9 -12 0
-8 -9 10 0
-5 -6 17 0
-5 7 -17 0
-3 10 17 0
9 -15 19 0
1 15 18 0
-4 11 -20 0
-1 -7 10 0
-4 -11 -14 0
5 -10 -20 0
-1 10 -12 0
-1 -4 9 0
-8 11 -12 0
-6 -10 20 0
-2 -3 -17 0
-8 10 17 0
13 -14 -19 0
-10 -14 16 0
-3 6 -20 0
1 12 13 0
1 7 14 0
-12 15 16 0
-2 -11 -18 0
7 -11 16 0
1 16 -17 0
4 -10 14 0
-17 -18 -19 0
-5 -9 -19 0
9 -10 -13 0
-1 -7 -14 0
1 -3 -18 0
-2 -3 11 0
-5 14 -18 0
-5 16 -18 0
